c
c Generated WCNF file
c
p wcnf 37 157 20301
20301 9 0
20301 -10 1 0
20301 -10 2 0
20301 10 -1 -2 0
20301 -11 1 0
20301 -11 3 0
20301 11 -1 -3 0
20301 -12 1 0
20301 -12 4 0
20301 12 -1 -4 0
20301 -13 1 0
20301 -13 5 0
20301 13 -1 -5 0
20301 -14 1 0
20301 -14 6 0
20301 14 -1 -6 0
20301 -15 1 0
20301 -15 7 0
20301 15 -1 -7 0
20301 -16 1 0
20301 -16 8 0
20301 16 -1 -8 0
20301 -17 2 0
20301 -17 3 0
20301 17 -2 -3 0
20301 -18 2 0
20301 -18 4 0
20301 18 -2 -4 0
20301 -19 2 0
20301 -19 5 0
20301 19 -2 -5 0
20301 -20 2 0
20301 -20 6 0
20301 20 -2 -6 0
20301 -21 2 0
20301 -21 7 0
20301 21 -2 -7 0
20301 -22 2 0
20301 -22 8 0
20301 22 -2 -8 0
20301 -23 3 0
20301 -23 4 0
20301 23 -3 -4 0
20301 -24 3 0
20301 -24 5 0
20301 24 -3 -5 0
20301 -25 3 0
20301 -25 6 0
20301 25 -3 -6 0
20301 -26 3 0
20301 -26 7 0
20301 26 -3 -7 0
20301 -27 3 0
20301 -27 8 0
20301 27 -3 -8 0
20301 -28 4 0
20301 -28 5 0
20301 28 -4 -5 0
20301 -29 4 0
20301 -29 6 0
20301 29 -4 -6 0
20301 -30 4 0
20301 -30 7 0
20301 30 -4 -7 0
20301 -31 4 0
20301 -31 8 0
20301 31 -4 -8 0
20301 -32 5 0
20301 -32 6 0
20301 32 -5 -6 0
20301 -33 5 0
20301 -33 7 0
20301 33 -5 -7 0
20301 -34 5 0
20301 -34 8 0
20301 34 -5 -8 0
20301 -35 6 0
20301 -35 7 0
20301 35 -6 -7 0
20301 -36 6 0
20301 -36 8 0
20301 36 -6 -8 0
20301 -37 7 0
20301 -37 8 0
20301 37 -7 -8 0
12093 1 0
20291 -1 0
18861 10 0
20291 -10 0
19519 11 0
20291 -11 0
17269 12 0
20291 -12 0
25775 13 0
20291 -13 0
19937 14 0
20291 -14 0
20445 15 0
20291 -15 0
17057 16 0
20291 -16 0
10 2 0
20291 -2 0
28847 17 0
20291 -17 0
21509 18 0
20291 -18 0
17433 19 0
20291 -19 0
18073 20 0
20291 -20 0
23069 21 0
20291 -21 0
22741 22 0
20291 -22 0
26224 3 0
20291 -3 0
20459 23 0
20291 -23 0
29405 24 0
20291 -24 0
19885 25 0
20291 -25 0
20857 26 0
20291 -26 0
18233 27 0
20291 -27 0
17718 4 0
20291 -4 0
20437 28 0
20291 -28 0
21941 29 0
20291 -29 0
18449 30 0
20291 -30 0
17841 31 0
20291 -31 0
8166 5 0
20291 -5 0
21477 32 0
20291 -32 0
18833 33 0
20291 -33 0
22153 34 0
20291 -34 0
18772 6 0
20291 -6 0
21645 35 0
20291 -35 0
20977 36 0
20291 -36 0
20648 7 0
20291 -7 0
18821 37 0
20291 -37 0
21320 8 0
20291 -8 0
